words_easy_train/words_555_SAT.qaiger
aag 30 16 0 1 14
6
20
26
24
4
22
30
32
10
8
18
14
12
16
28
2
61
34 27 12
36 21 6
38 37 35
40 25 10
42 23 8
44 43 41
46 44 38
48 19 4
50 31 16
52 51 49
54 29 14
56 55 3
58 56 52
60 58 46
i0 2 y2[2]
i1 1 x1[1]
i2 1 x1[4]
i3 1 x1[3]
i4 2 y2[1]
i5 1 x1[2]
i6 1 x1[6]
i7 1 x1[7]
i8 2 y2[4]
i9 2 y2[3]
i10 1 x1[0]
i11 2 y2[6]
i12 2 y2[5]
i13 2 y2[7]
i14 1 x1[5]
i15 2 y2[0]
o0 bool[0]
c
simplified
  !=
    and
      2 y2
      << 1
        1 x1
    2 y2
