words_easy_train/words_555_SAT.qaiger.qdimacs
p cnf 30 43
a 9 10 11 12 13 14 15 16 0
e 1 2 3 4 5 6 7 8 17 18 19 20 21 22 23 24 25 26 27 28 29 30 0
13 -6 17 0
-13 -17 0
6 -17 0
10 -3 18 0
-10 -18 0
3 -18 0
18 17 19 0
-18 -19 0
-17 -19 0
12 -5 20 0
-12 -20 0
5 -20 0
11 -4 21 0
-11 -21 0
4 -21 0
21 20 22 0
-21 -22 0
-20 -22 0
-22 -19 23 0
22 -23 0
19 -23 0
9 -2 24 0
-9 -24 0
2 -24 0
15 -8 25 0
-15 -25 0
8 -25 0
25 24 26 0
-25 -26 0
-24 -26 0
14 -7 27 0
-14 -27 0
7 -27 0
27 1 28 0
-27 -28 0
-1 -28 0
-28 -26 29 0
28 -29 0
26 -29 0
-29 -23 30 0
29 -30 0
23 -30 0
-30 0
